/*********************************************
 * OPL 12.6.0.0 Data
 * Author: Adrian Rodriguez Bazaga, Pau Rodriguez Esmerats
 * Creation Date: 21/11/2017 at 20:50:30
 *********************************************/

nNurses=157;
maxConsec=2;
maxPresence=7;
maxHours=5;
minHours=1;
demand= [41 47 52 55 47 52 55 47 38 17 8 4 10 5 13 5 11 2 5 1 28 55 30 41  ];
